0 51 71 96 80 72 82 8 20 57
51 0 95 75 66 73 7 22 41 79
71 95 0 53 38 24 74 8 68 33
96 75 53 0 31 78 64 23 44 2
80 66 38 31 0 19 63 53 45 35
72 73 24 78 19 0 19 63 68 15
82 7 74 64 63 19 0 37 12 39
8 22 8 23 53 63 37 0 38 88
20 41 68 44 45 68 12 38 0 80
57 79 33 2 35 15 39 88 80 0
